p cnf 12 50 
3 5 1 0
11 -3 -12 0
-2 -11 -1 0
2 -11 6 0
4 -5 -1 0
12 -11 -2 0
-1 7 -11 0
-8 2 -3 0
-3 6 -11 0
-12 7 9 0
1 -12 10 0
10 -3 5 0
-11 1 -6 0
8 -9 -12 0
-11 -8 -9 0
1 9 -3 0
-6 8 -3 0
-11 -1 -10 0
3 -10 12 0
8 -5 10 0
-11 -9 -5 0
6 3 -8 0
3 -1 11 0
2 -5 3 0
-12 -4 -2 0
-8 -7 -4 0
5 12 -11 0
8 -1 -6 0
-6 -4 -2 0
5 2 -6 0
12 6 3 0
-5 3 4 0
8 -5 10 0
-2 8 10 0
4 -1 2 0
5 1 -12 0
8 11 -3 0
9 7 5 0
11 -12 -7 0
-4 11 12 0
-10 -5 2 0
8 12 -9 0
-12 -3 -9 0
-1 -10 8 0
12 -4 -1 0
-7 10 3 0
-6 1 -9 0
-6 -3 -1 0
-5 6 12 0
-6 -7 -8 0
